mass 1*3 114.818 #In
group layer_1 type 1
group layer_2 type 2
group layer_3 type 3
pair_style hybrid sw sw sw  lj/cut 11.0
pair_coeff * * sw 1 scripts/afm/indiene/size_100x_100y/sub_aSi/tip_Si_r25/K300/potentials/indiene.sw In  NULL  NULL # interlayer '2D' Layer 1
pair_coeff * * sw 2 scripts/afm/indiene/size_100x_100y/sub_aSi/tip_Si_r25/K300/potentials/indiene.sw NULL  In  NULL # interlayer '2D' Layer 2
pair_coeff * * sw 3 scripts/afm/indiene/size_100x_100y/sub_aSi/tip_Si_r25/K300/potentials/indiene.sw NULL  NULL  In # interlayer '2D' Layer 3
pair_coeff 1 2*3 lj/cut 0.0259746766 4.463 
pair_coeff 2 3 lj/cut 0.0259746766 4.463 
