mass 1*8 74.921595 #As
group layer_1 type 1 2 3 4
group layer_2 type 5 6 7 8
pair_style hybrid sw sw  lj/cut 11.0
pair_coeff * * sw 1 scripts/afm/p-arsenene/size_100x_100y/sub_aSi/tip_Si_r25/K300/potentials/p-arsenene.sw As1  As2  As3  As4  NULL  NULL  NULL  NULL # interlayer '2D' Layer 1
pair_coeff * * sw 2 scripts/afm/p-arsenene/size_100x_100y/sub_aSi/tip_Si_r25/K300/potentials/p-arsenene.sw NULL  NULL  NULL  NULL  As1  As2  As3  As4 # interlayer '2D' Layer 2
pair_coeff 1*4 5*8 lj/cut 0.0133992906 4.23 
