mass 1*3 121.76 #Sb
group layer_1 type 1
group layer_2 type 2
group layer_3 type 3
pair_style hybrid sw sw sw  lj/cut 11.0
pair_coeff * * sw 1 scripts/afm/b-antimonene/size_100x_100y/sub_aSi/tip_Si_r25/K300/potentials/b-antimonene.sw Sb  NULL  NULL # interlayer '2D' Layer 1
pair_coeff * * sw 2 scripts/afm/b-antimonene/size_100x_100y/sub_aSi/tip_Si_r25/K300/potentials/b-antimonene.sw NULL  Sb  NULL # interlayer '2D' Layer 2
pair_coeff * * sw 3 scripts/afm/b-antimonene/size_100x_100y/sub_aSi/tip_Si_r25/K300/potentials/b-antimonene.sw NULL  NULL  Sb # interlayer '2D' Layer 3
pair_coeff 1 2*3 lj/cut 0.0194701666 4.42 
pair_coeff 2 3 lj/cut 0.0194701666 4.42 
