# LAMMPS input script for system build with input of substrate, graphene sheet and AFM tip

clear

units           metal
atom_style      atomic
neighbor        0.3 bin
neigh_modify    every 1 delay 0 check yes #every 5

boundary   	    p p f
read_data       scripts/h-MoS2/size_100x_100y/sub_aSi/tip_Si_r25/K300/l_1/data/load_5N.data # Read system data

include         scripts/h-MoS2/size_100x_100y/sub_aSi/tip_Si_r25/K300/l_1/lammps/system.in.settings

#----------------- Create visualisation files  ------------

##########################################################
#--------------------Tip Indentation---------------------#
##########################################################
#----------------- Apply constraints   ---------------------

#Fix the bottom layer of the base and the edges of the graphene

fix             sub_fix sub_fix setforce 0.0 0.0 0.0 
fix             tip_f tip_fix rigid/nve single force * off off on torque * off off off

#----------------- Apply Langevin thermostat   -------------

compute         temp_tip tip_thermo temp/partial 0 1 0
fix             lang_tip tip_thermo langevin 300   300 $(100.0*dt) 699483 zero yes
fix_modify      lang_tip temp temp_tip

compute         temp_base sub_thermo temp/partial 0 1 0
fix             lang_bot sub_thermo langevin 300   300 $(100.0*dt) 2847563 zero yes
fix_modify      lang_bot temp temp_base

fix             nve_all all nve
timestep        0.001
thermo          100

#----------------- Set up initial parameters   -------------

variable find equal 8
variable num_floads equal 500
variable r equal 0.0
variable f equal 5
variable fincr equal (${find}-${f})/${num_floads}
thermo_style    custom step temp v_f pe ke etotal press
thermo_modify   lost ignore flush yes

run 0

#----------------- Apply pressure to the tip   -------------

variable i loop ${num_floads}
label loop_load

# Set force variable

variable Fatom equal -v_f/(count(tip_fix)*1.602176565)
fix forcetip tip_fix aveforce 0.0 0.0 ${Fatom}
run 100 

unfix forcetip

variable f equal ${f}+${fincr} 

next i
jump SELF loop_load

##########################################################
#---------------------Equilibration----------------------#
##########################################################

fix forcetip tip_fix aveforce 0.0 0.0 ${Fatom}
variable        dispz equal xcm(tip_fix,z)

run 100 pre yes post no

# Prepare to loop for displacement checks

label check_r

variable disp_l equal ${dispz}
variable disp_h equal ${dispz}

variable disploop loop 50
label disp

run 100 pre no post no

if '${dispz}>${disp_h}' then 'variable disp_h equal ${dispz}   '
if '${dispz}<${disp_l}' then 'variable disp_l equal ${dispz}   '

next disploop
jump SELF disp

variable r equal ${disp_h}-${disp_l}

# Check if r is less than 0.1

if '${r} < 0.2' then 'jump SELF loop_end' else 'jump SELF          check_r'

# End of the loop

label loop_end

write_data scripts/h-MoS2/size_100x_100y/sub_aSi/tip_Si_r25/K300/l_1/data/load_8N.data