mass 1*2 118.71 #Sn
group layer_1 type 1
group layer_2 type 2
pair_style hybrid sw sw  lj/cut 11.0
pair_coeff * * sw 1 scripts/afm/stanene/size_100x_100y/sub_aSi/tip_Si_r25/K300/potentials/stanene.sw Sn  NULL # interlayer '2D' Layer 1
pair_coeff * * sw 2 scripts/afm/stanene/size_100x_100y/sub_aSi/tip_Si_r25/K300/potentials/stanene.sw NULL  Sn # interlayer '2D' Layer 2
pair_coeff 1 2 lj/cut 0.0245870478 4.392 
