mass 1 28.085 #Si
pair_style sw
pair_coeff * * ./tribo_2D/Potentials/Si.sw Si
