mass 1*16 121.76 #Sb
group layer_1 type 1 2 3 4 5 6 7 8
group layer_2 type 9 10 11 12 13 14 15 16
pair_style hybrid sw sw  lj/cut 11.0
pair_coeff * * sw 1 scripts/afm/p-antimonene/size_100x_100y/sub_aSi/tip_Si_r25/K300/potentials/p-antimonene.sw Sb1  Sb2  Sb3  Sb4  Sb5  Sb6  Sb7  Sb8  NULL  NULL  NULL  NULL  NULL  NULL  NULL  NULL # interlayer '2D' Layer 1
pair_coeff * * sw 2 scripts/afm/p-antimonene/size_100x_100y/sub_aSi/tip_Si_r25/K300/potentials/p-antimonene.sw NULL  NULL  NULL  NULL  NULL  NULL  NULL  NULL  Sb1  Sb2  Sb3  Sb4  Sb5  Sb6  Sb7  Sb8 # interlayer '2D' Layer 2
pair_coeff 1*8 9*16 lj/cut 0.0194701666 4.42 
