mass 1*8 30.973761998 #P
group layer_1 type 1 2 3 4
group layer_2 type 5 6 7 8
pair_style hybrid sw sw  lj/cut 11.0
pair_coeff * * sw 1 scripts/afm/black_phosphorus/size_100x_100y/sub_aSi/tip_Si_r25/K300/potentials/black_phosphorus.sw P1  P2  P3  P4  NULL  NULL  NULL  NULL # interlayer '2D' Layer 1
pair_coeff * * sw 2 scripts/afm/black_phosphorus/size_100x_100y/sub_aSi/tip_Si_r25/K300/potentials/black_phosphorus.sw NULL  NULL  NULL  NULL  P1  P2  P3  P4 # interlayer '2D' Layer 2
pair_coeff 1*4 5*8 lj/cut 0.013225837 4.147 
