mass 1*3 28.085 #Si
pair_style sw
pair_coeff * * scripts/afm/InS/size_100x_100y/sub_aSi/tip_Si_r25/K300/potentials/Si.sw Si Si Si
